(declare-fun temp559_1 () (_ BitVec 64))
(declare-fun var80340 () (_ BitVec 64))
(declare-fun k!0 () Bool)
(declare-fun ARGNAME_dims_self_NAMEEND_LEN () (_ BitVec 64))
(declare-fun ARGNAME_dims_other_NAMEEND_LEN () (_ BitVec 64))
(declare-fun temp559_3 () (_ BitVec 64))
(declare-fun temp559_2 () (_ BitVec 64))
(declare-fun var203926 () (_ BitVec 64))
(declare-fun temp559_4 () (_ BitVec 64))
(declare-fun temp559_5 () (_ BitVec 64))
(declare-fun var272546 () (_ BitVec 64))
(declare-fun var338093 () (_ BitVec 64))
(declare-fun var136036 () (_ BitVec 64))
(declare-fun temp559_6 () (_ BitVec 64))
(declare-fun var80413 () (_ BitVec 64))
(declare-fun var80394 () (_ BitVec 64))
(declare-fun var80393 () (_ BitVec 64))
(declare-fun temp559_7 () (_ BitVec 64))
(declare-fun ARGNAME_input_NAMEEND_DIM () (_ BitVec 64))
(declare-fun var1187199 () (_ BitVec 64))
(declare-fun temp559_8 () (_ BitVec 64))
(declare-fun temp559_10 () (_ BitVec 64))
(declare-fun temp559_9 () (_ BitVec 64))
(declare-fun temp559_12 () (_ BitVec 64))
(declare-fun temp559_11 () (_ BitVec 64))
(declare-fun temp559_13 () (_ BitVec 64))
(declare-fun var1779874 () (_ BitVec 64))
(declare-fun var1845421 () (_ BitVec 64))
(declare-fun temp559_14 () (_ BitVec 64))
(declare-fun var2630727 () (_ BitVec 64))
(declare-fun temp559_15 () (_ BitVec 64))
(declare-fun ARGNAME_other_NAMEEND_DIM () (_ BitVec 64))
(declare-fun var3022207 () (_ BitVec 64))
(declare-fun temp559_16 () (_ BitVec 64))
(declare-fun temp559_18 () (_ BitVec 64))
(declare-fun temp559_17 () (_ BitVec 64))
(declare-fun temp559_20 () (_ BitVec 64))
(declare-fun temp559_19 () (_ BitVec 64))
(declare-fun temp559_21 () (_ BitVec 64))
(declare-fun var3614882 () (_ BitVec 64))
(declare-fun var3680429 () (_ BitVec 64))
(declare-fun temp559_22 () (_ BitVec 64))
(declare-fun var4465735 () (_ BitVec 64))
(declare-fun var80583 () (_ BitVec 64))
(declare-fun var80585 () (_ BitVec 64))
(declare-fun temp559_24 () (_ BitVec 64))
(declare-fun temp559_23 () (_ BitVec 64))
(declare-fun var5772276 () (_ BitVec 64))
(declare-fun temp559_25 () (_ BitVec 64))
(declare-fun temp559_26 () (_ BitVec 64))
(declare-fun var5841941 () (_ BitVec 64))
(declare-fun var5907488 () (_ BitVec 64))
(declare-fun var5709342 () (_ BitVec 64))
(declare-fun temp559_27 () (_ BitVec 64))
(declare-fun var80646 () (_ BitVec 64))
(declare-fun temp559_28 () (_ BitVec 64))
(declare-fun var6889949 () (_ BitVec 64))
(declare-fun var6889961 () (_ BitVec 64))
(declare-fun temp559_30 () (_ BitVec 64))
(declare-fun temp559_29 () (_ BitVec 64))
(declare-fun var9245684 () (_ BitVec 64))
(declare-fun temp559_31 () (_ BitVec 64))
(declare-fun temp559_32 () (_ BitVec 64))
(declare-fun var9315349 () (_ BitVec 64))
(declare-fun var9380896 () (_ BitVec 64))
(declare-fun var9182750 () (_ BitVec 64))
(declare-fun temp559_33 () (_ BitVec 64))
(declare-fun var80775 () (_ BitVec 64))
(declare-fun temp559_35 () (_ BitVec 64))
(declare-fun temp559_34 () (_ BitVec 64))
(declare-fun temp559_37 () (_ BitVec 64))
(declare-fun temp559_36 () (_ BitVec 64))
(assert (= var80340
   (ite (= ARGNAME_dims_self_NAMEEND_LEN ARGNAME_dims_other_NAMEEND_LEN)
        #x0000000000000001
        #x0000000000000000)))
(assert (= temp559_1 #x0000000000000001))
(assert (= var80340 temp559_1))
(assert (= temp559_3 #x0000000000000000))
(assert (= temp559_2 temp559_3))
(assert (= var203926
   (ite (bvslt temp559_2 ARGNAME_dims_self_NAMEEND_LEN)
        #x0000000000000001
        #x0000000000000000)))
(assert (= temp559_4
   (ite (= var203926 #x0000000000000001)
        ARGNAME_dims_self_NAMEEND_LEN
        temp559_2)))
(assert (= temp559_5 #x0000000000000000))
(assert (= var272546 temp559_5))
(assert (= var338093 var272546))
(assert (= var136036 var338093))
(assert (= temp559_6 #x0000000000000001))
(assert (= var80413 temp559_6))
(assert (= var80394 var80413))
(assert (= var80393 var80394))
(assert (= temp559_7 #x0000000000000040))
(assert (= var1187199
   (ite (bvsgt ARGNAME_input_NAMEEND_DIM temp559_7)
        #x0000000000000001
        #x0000000000000000)))
(assert (= temp559_8 #x0000000000000000))
(assert (= var1187199 temp559_8))
(assert (= temp559_10 #x0000000000000000))
(assert (= temp559_9 temp559_10))
(assert (= temp559_12 #x0000000000000000))
(assert (= temp559_11 temp559_12))
(assert (= temp559_13 #x0000000000000000))
(assert (= var1779874 temp559_13))
(assert (= var1845421 var1779874))
(assert (= temp559_14 #x0000000000000001))
(assert (= var2630727 temp559_14))
(assert (= temp559_15 #x0000000000000040))
(assert (= var3022207
   (ite (bvsgt ARGNAME_other_NAMEEND_DIM temp559_15)
        #x0000000000000001
        #x0000000000000000)))
(assert (= temp559_16 #x0000000000000000))
(assert (= var3022207 temp559_16))
(assert (= temp559_18 #x0000000000000000))
(assert (= temp559_17 temp559_18))
(assert (= temp559_20 #x0000000000000000))
(assert (= temp559_19 temp559_20))
(assert (= temp559_21 #x0000000000000000))
(assert (= var3614882 temp559_21))
(assert (= var3680429 var3614882))
(assert (= temp559_22 #x0000000000000001))
(assert (= var4465735 temp559_22))
(assert (= var80583 (bvadd ARGNAME_other_NAMEEND_DIM ARGNAME_input_NAMEEND_DIM)))
(assert (= var80585 (bvsub var80583 ARGNAME_dims_self_NAMEEND_LEN)))
(assert (= temp559_24 #x0000000000000000))
(assert (= temp559_23 temp559_24))
(assert (= var5772276
   (ite (bvslt temp559_23 ARGNAME_input_NAMEEND_DIM)
        #x0000000000000001
        #x0000000000000000)))
(assert (= temp559_25
   (ite (= var5772276 #x0000000000000001) ARGNAME_input_NAMEEND_DIM temp559_23)))
(assert (= temp559_26 #x0000000000000000))
(assert (= var5841941 temp559_26))
(assert (= var5907488 var5841941))
(assert (= var5709342 var5907488))
(assert (= temp559_27 #x0000000000000001))
(assert (= var80646 temp559_27))
(assert (= temp559_28 #x0000000000000001))
(assert (= var6889949 temp559_28))
(assert (= var6889961 var6889949))
(assert (= temp559_30 #x0000000000000000))
(assert (= temp559_29 temp559_30))
(assert (= var9245684
   (ite (bvslt temp559_29 ARGNAME_other_NAMEEND_DIM)
        #x0000000000000001
        #x0000000000000000)))
(assert (= temp559_31
   (ite (= var9245684 #x0000000000000001) ARGNAME_other_NAMEEND_DIM temp559_29)))
(assert (= temp559_32 #x0000000000000000))
(assert (= var9315349 temp559_32))
(assert (= var9380896 var9315349))
(assert (= var9182750 var9380896))
(assert (= temp559_33 #x0000000000000001))
(assert (= var80775 temp559_33))
(assert (= temp559_35 #x0000000000000002))
(assert (= temp559_34 temp559_35))
(assert (= temp559_37 #x0000000000000002))
(assert (= temp559_36 temp559_37))
(model-add temp559_1 () (_ BitVec 64) #x0000000000000001)
(model-add var80340 () (_ BitVec 64) #x0000000000000001)
(model-del k!0)
(model-add ARGNAME_dims_self_NAMEEND_LEN
           ()
           (_ BitVec 64)
           (ite k!0
                ARGNAME_dims_other_NAMEEND_LEN
                (bvnot ARGNAME_dims_other_NAMEEND_LEN)))




